p cnf 11 24
-11 10 -2 0
-11 -9 -3 0
11 7 -3 0
-11 7 1 0
-11 -7 1 0
11 6 5 0
-11 5 -1 0
-10 9 -4 0
10 6 -5 0
10 -5 -4 0
-9 -8 3 0
-9 8 2 0
9 7 1 0
9 6 -5 0
9 6 -2 0
-8 -6 -4 0
-8 -6 -2 0
-8 -5 4 0
8 2 1 0
-7 -6 3 0
7 5 2 0
6 5 -2 0
-5 -4 -3 0
3 -2 -1 0
